PROBLEM NAME: 	pcb442-TTP
KNAPSACK DATA TYPE: uncorrelated
DIMENSION:	442
NUMBER OF ITEMS: 	1323
CAPACITY OF KNAPSACK: 	298529
MIN SPEED: 	0.1
MAX SPEED: 	1
RENTING RATIO: 	3.53
EDGE_WEIGHT_TYPE:	CEIL_2D
NODE_COORD_SECTION	(INDEX, X, Y): 
1	2.00000e+02	4.00000e+02
2	2.00000e+02	5.00000e+02
3	2.00000e+02	6.00000e+02
4	2.00000e+02	7.00000e+02
5	2.00000e+02	8.00000e+02
6	2.00000e+02	9.00000e+02
7	2.00000e+02	1.00000e+03
8	2.00000e+02	1.10000e+03
9	2.00000e+02	1.20000e+03
10	2.00000e+02	1.30000e+03
11	2.00000e+02	1.40000e+03
12	2.00000e+02	1.50000e+03
13	2.00000e+02	1.60000e+03
14	2.00000e+02	1.70000e+03
15	2.00000e+02	1.80000e+03
16	2.00000e+02	1.90000e+03
17	2.00000e+02	2.00000e+03
18	2.00000e+02	2.10000e+03
19	2.00000e+02	2.20000e+03
20	2.00000e+02	2.30000e+03
21	2.00000e+02	2.40000e+03
22	2.00000e+02	2.50000e+03
23	2.00000e+02	2.60000e+03
24	2.00000e+02	2.70000e+03
25	2.00000e+02	2.80000e+03
26	2.00000e+02	2.90000e+03
27	2.00000e+02	3.00000e+03
28	2.00000e+02	3.10000e+03
29	2.00000e+02	3.20000e+03
30	2.00000e+02	3.30000e+03
31	2.00000e+02	3.40000e+03
32	2.00000e+02	3.50000e+03
33	2.00000e+02	3.60000e+03
34	3.00000e+02	4.00000e+02
35	3.00000e+02	5.00000e+02
36	3.00000e+02	6.00000e+02
37	3.00000e+02	7.00000e+02
38	3.00000e+02	8.00000e+02
39	3.00000e+02	9.00000e+02
40	3.00000e+02	1.00000e+03
41	3.00000e+02	1.10000e+03
42	3.00000e+02	1.20000e+03
43	3.00000e+02	1.30000e+03
44	3.00000e+02	1.40000e+03
45	3.00000e+02	1.50000e+03
46	3.00000e+02	1.60000e+03
47	3.00000e+02	1.70000e+03
48	3.00000e+02	1.80000e+03
49	3.00000e+02	1.90000e+03
50	3.00000e+02	2.00000e+03
51	3.00000e+02	2.10000e+03
52	3.00000e+02	2.20000e+03
53	3.00000e+02	2.30000e+03
54	3.00000e+02	2.40000e+03
55	3.00000e+02	2.50000e+03
56	3.00000e+02	2.60000e+03
57	3.00000e+02	2.70000e+03
58	3.00000e+02	2.80000e+03
59	3.00000e+02	2.90000e+03
60	3.00000e+02	3.00000e+03
61	3.00000e+02	3.10000e+03
62	3.00000e+02	3.20000e+03
63	3.00000e+02	3.30000e+03
64	3.00000e+02	3.40000e+03
65	3.00000e+02	3.50000e+03
66	4.00000e+02	4.00000e+02
67	4.00000e+02	5.00000e+02
68	4.00000e+02	6.00000e+02
69	4.00000e+02	7.00000e+02
70	4.00000e+02	8.00000e+02
71	4.00000e+02	9.00000e+02
72	4.00000e+02	1.00000e+03
73	4.00000e+02	1.10000e+03
74	4.00000e+02	1.20000e+03
75	4.00000e+02	1.30000e+03
76	4.00000e+02	1.40000e+03
77	4.00000e+02	1.50000e+03
78	4.00000e+02	1.60000e+03
79	4.00000e+02	1.70000e+03
80	4.00000e+02	1.80000e+03
81	4.00000e+02	1.90000e+03
82	4.00000e+02	2.00000e+03
83	4.00000e+02	2.10000e+03
84	4.00000e+02	2.20000e+03
85	4.00000e+02	2.30000e+03
86	4.00000e+02	2.40000e+03
87	4.00000e+02	2.50000e+03
88	4.00000e+02	2.60000e+03
89	4.00000e+02	2.70000e+03
90	4.00000e+02	2.80000e+03
91	4.00000e+02	2.90000e+03
92	4.00000e+02	3.00000e+03
93	4.00000e+02	3.10000e+03
94	4.00000e+02	3.20000e+03
95	4.00000e+02	3.30000e+03
96	4.00000e+02	3.40000e+03
97	4.00000e+02	3.50000e+03
98	4.00000e+02	3.60000e+03
99	5.00000e+02	1.50000e+03
100	5.00000e+02	1.82900e+03
101	5.00000e+02	3.10000e+03
102	6.00000e+02	4.00000e+02
103	7.00000e+02	3.00000e+02
104	7.00000e+02	6.00000e+02
105	7.00000e+02	1.50000e+03
106	7.00000e+02	1.60000e+03
107	7.00000e+02	1.80000e+03
108	7.00000e+02	2.10000e+03
109	7.00000e+02	2.40000e+03
110	7.00000e+02	2.70000e+03
111	7.00000e+02	3.00000e+03
112	7.00000e+02	3.30000e+03
113	7.00000e+02	3.60000e+03
114	8.00000e+02	3.00000e+02
115	8.00000e+02	6.00000e+02
116	8.00000e+02	1.03000e+03
117	8.00000e+02	1.50000e+03
118	8.00000e+02	1.80000e+03
119	8.00000e+02	2.10000e+03
120	8.00000e+02	2.40000e+03
121	8.00000e+02	2.60000e+03
122	8.00000e+02	2.70000e+03
123	8.00000e+02	3.00000e+03
124	8.00000e+02	3.30000e+03
125	8.00000e+02	3.60000e+03
126	9.00000e+02	3.00000e+02
127	9.00000e+02	6.00000e+02
128	9.00000e+02	1.50000e+03
129	9.00000e+02	1.80000e+03
130	9.00000e+02	2.10000e+03
131	9.00000e+02	2.40000e+03
132	9.00000e+02	2.70000e+03
133	9.00000e+02	3.00000e+03
134	9.00000e+02	3.30000e+03
135	9.00000e+02	3.60000e+03
136	1.00000e+03	3.00000e+02
137	1.00000e+03	6.00000e+02
138	1.00000e+03	1.10000e+03
139	1.00000e+03	1.50000e+03
140	1.00000e+03	1.62900e+03
141	1.00000e+03	1.80000e+03
142	1.00000e+03	2.10000e+03
143	1.00000e+03	2.40000e+03
144	1.00000e+03	2.60000e+03
145	1.00000e+03	2.70000e+03
146	1.00000e+03	3.00000e+03
147	1.00000e+03	3.30000e+03
148	1.00000e+03	3.60000e+03
149	1.10000e+03	3.00000e+02
150	1.10000e+03	6.00000e+02
151	1.10000e+03	7.00000e+02
152	1.10000e+03	9.00000e+02
153	1.10000e+03	1.50000e+03
154	1.10000e+03	1.80000e+03
155	1.10000e+03	2.10000e+03
156	1.10000e+03	2.40000e+03
157	1.10000e+03	2.70000e+03
158	1.10000e+03	3.00000e+03
159	1.10000e+03	3.30000e+03
160	1.10000e+03	3.60000e+03
161	1.20000e+03	3.00000e+02
162	1.20000e+03	6.00000e+02
163	1.20000e+03	1.50000e+03
164	1.20000e+03	1.70000e+03
165	1.20000e+03	1.80000e+03
166	1.20000e+03	2.10000e+03
167	1.20000e+03	2.40000e+03
168	1.20000e+03	2.70000e+03
169	1.20000e+03	3.00000e+03
170	1.20000e+03	3.30000e+03
171	1.20000e+03	3.60000e+03
172	1.30000e+03	3.00000e+02
173	1.30000e+03	6.00000e+02
174	1.30000e+03	7.00000e+02
175	1.30000e+03	1.13000e+03
176	1.30000e+03	1.50000e+03
177	1.30000e+03	1.80000e+03
178	1.30000e+03	2.10000e+03
179	1.30000e+03	2.20000e+03
180	1.30000e+03	2.40000e+03
181	1.30000e+03	2.70000e+03
182	1.30000e+03	3.00000e+03
183	1.30000e+03	3.30000e+03
184	1.30000e+03	3.60000e+03
185	1.40000e+03	3.00000e+02
186	1.40000e+03	6.00000e+02
187	1.40000e+03	9.30000e+02
188	1.40000e+03	1.50000e+03
189	1.40000e+03	1.80000e+03
190	1.40000e+03	2.00000e+03
191	1.40000e+03	2.10000e+03
192	1.40000e+03	2.40000e+03
193	1.40000e+03	2.50000e+03
194	1.40000e+03	2.70000e+03
195	1.40000e+03	2.82000e+03
196	1.40000e+03	2.90000e+03
197	1.40000e+03	3.00000e+03
198	1.40000e+03	3.30000e+03
199	1.40000e+03	3.60000e+03
200	1.50000e+03	1.50000e+03
201	1.50000e+03	1.80000e+03
202	1.50000e+03	1.90000e+03
203	1.50000e+03	2.10000e+03
204	1.50000e+03	2.40000e+03
205	1.50000e+03	2.70000e+03
206	1.50000e+03	2.80000e+03
207	1.50000e+03	2.86000e+03
208	1.50000e+03	3.00000e+03
209	1.50000e+03	3.30000e+03
210	1.50000e+03	3.60000e+03
211	1.60000e+03	1.10000e+03
212	1.60000e+03	1.30000e+03
213	1.60000e+03	1.50000e+03
214	1.60000e+03	1.80000e+03
215	1.60000e+03	2.10000e+03
216	1.60000e+03	2.40000e+03
217	1.60000e+03	2.70000e+03
218	1.60000e+03	3.00000e+03
219	1.60000e+03	3.30000e+03
220	1.60000e+03	3.60000e+03
221	1.70000e+03	1.20000e+03
222	1.70000e+03	1.50000e+03
223	1.70000e+03	1.80000e+03
224	1.70000e+03	2.10000e+03
225	1.70000e+03	2.40000e+03
226	1.70000e+03	3.60000e+03
227	1.80000e+03	3.00000e+02
228	1.80000e+03	6.00000e+02
229	1.80000e+03	1.23000e+03
230	1.80000e+03	1.50000e+03
231	1.80000e+03	1.80000e+03
232	1.80000e+03	2.10000e+03
233	1.80000e+03	2.40000e+03
234	1.90000e+03	3.00000e+02
235	1.90000e+03	6.00000e+02
236	1.90000e+03	3.00000e+03
237	1.90000e+03	3.52000e+03
238	2.00000e+03	3.00000e+02
239	2.00000e+03	3.70000e+02
240	2.00000e+03	6.00000e+02
241	2.00000e+03	8.00000e+02
242	2.00000e+03	9.00000e+02
243	2.00000e+03	1.00000e+03
244	2.00000e+03	1.10000e+03
245	2.00000e+03	1.20000e+03
246	2.00000e+03	1.30000e+03
247	2.00000e+03	1.40000e+03
248	2.00000e+03	1.50000e+03
249	2.00000e+03	1.60000e+03
250	2.00000e+03	1.70000e+03
251	2.00000e+03	1.80000e+03
252	2.00000e+03	1.90000e+03
253	2.00000e+03	2.00000e+03
254	2.00000e+03	2.10000e+03
255	2.00000e+03	2.20000e+03
256	2.00000e+03	2.30000e+03
257	2.00000e+03	2.40000e+03
258	2.00000e+03	2.50000e+03
259	2.00000e+03	2.60000e+03
260	2.00000e+03	2.70000e+03
261	2.00000e+03	2.80000e+03
262	2.00000e+03	2.90000e+03
263	2.00000e+03	3.00000e+03
264	2.00000e+03	3.10000e+03
265	2.00000e+03	3.50000e+03
266	2.10000e+03	3.00000e+02
267	2.10000e+03	6.00000e+02
268	2.10000e+03	3.20000e+03
269	2.20000e+03	3.00000e+02
270	2.20000e+03	4.69000e+02
271	2.20000e+03	6.00000e+02
272	2.20000e+03	3.20000e+03
273	2.30000e+03	3.00000e+02
274	2.30000e+03	6.00000e+02
275	2.30000e+03	3.40000e+03
276	2.40000e+03	3.00000e+02
277	2.40000e+03	6.00000e+02
278	2.40000e+03	2.10000e+03
279	2.50000e+03	3.00000e+02
280	2.50000e+03	8.00000e+02
281	2.60000e+03	4.00000e+02
282	2.60000e+03	5.00000e+02
283	2.60000e+03	8.00000e+02
284	2.60000e+03	9.00000e+02
285	2.60000e+03	1.00000e+03
286	2.60000e+03	1.10000e+03
287	2.60000e+03	1.20000e+03
288	2.60000e+03	1.30000e+03
289	2.60000e+03	1.40000e+03
290	2.60000e+03	1.50000e+03
291	2.60000e+03	1.60000e+03
292	2.60000e+03	1.70000e+03
293	2.60000e+03	1.80000e+03
294	2.60000e+03	1.90000e+03
295	2.60000e+03	2.00000e+03
296	2.60000e+03	2.10000e+03
297	2.60000e+03	2.20000e+03
298	2.60000e+03	2.30000e+03
299	2.60000e+03	2.40000e+03
300	2.60000e+03	2.50000e+03
301	2.60000e+03	2.60000e+03
302	2.60000e+03	2.70000e+03
303	2.60000e+03	2.80000e+03
304	2.60000e+03	2.90000e+03
305	2.60000e+03	3.00000e+03
306	2.60000e+03	3.10000e+03
307	2.60000e+03	3.40000e+03
308	2.70000e+03	7.00000e+02
309	2.70000e+03	8.00000e+02
310	2.70000e+03	9.00000e+02
311	2.70000e+03	1.00000e+03
312	2.70000e+03	1.10000e+03
313	2.70000e+03	1.20000e+03
314	2.70000e+03	1.30000e+03
315	2.70000e+03	1.40000e+03
316	2.70000e+03	1.50000e+03
317	2.70000e+03	1.60000e+03
318	2.70000e+03	1.70000e+03
319	2.70000e+03	1.80000e+03
320	2.70000e+03	1.90000e+03
321	2.70000e+03	2.00000e+03
322	2.70000e+03	2.10000e+03
323	2.70000e+03	2.20000e+03
324	2.70000e+03	2.30000e+03
325	2.70000e+03	2.50000e+03
326	2.70000e+03	2.60000e+03
327	2.70000e+03	2.70000e+03
328	2.70000e+03	2.80000e+03
329	2.70000e+03	2.90000e+03
330	2.70000e+03	3.00000e+03
331	2.70000e+03	3.10000e+03
332	2.70000e+03	3.20000e+03
333	2.70000e+03	3.30000e+03
334	2.70000e+03	3.40000e+03
335	2.70000e+03	3.50000e+03
336	2.70000e+03	3.60000e+03
337	2.70000e+03	3.70000e+03
338	2.70000e+03	3.80000e+03
339	2.80000e+03	9.00000e+02
340	2.80000e+03	1.13000e+03
341	2.90000e+03	4.00000e+02
342	2.90000e+03	5.00000e+02
343	2.90000e+03	1.40000e+03
344	2.90000e+03	2.40000e+03
345	2.90000e+03	3.00000e+03
346	3.00000e+03	7.00000e+02
347	3.00000e+03	8.00000e+02
348	3.00000e+03	9.00000e+02
349	3.00000e+03	1.00000e+03
350	3.00000e+03	1.10000e+03
351	3.00000e+03	1.20000e+03
352	3.00000e+03	1.30000e+03
353	3.00000e+03	1.50000e+03
354	3.00000e+03	1.60000e+03
355	3.00000e+03	1.70000e+03
356	3.00000e+03	1.80000e+03
357	3.00000e+03	1.90000e+03
358	3.00000e+03	2.00000e+03
359	3.00000e+03	2.10000e+03
360	3.00000e+03	2.20000e+03
361	3.00000e+03	2.30000e+03
362	3.00000e+03	2.50000e+03
363	3.00000e+03	2.60000e+03
364	3.00000e+03	2.70000e+03
365	3.00000e+03	2.80000e+03
366	3.00000e+03	2.90000e+03
367	3.00000e+03	3.00000e+03
368	3.00000e+03	3.10000e+03
369	3.00000e+03	3.20000e+03
370	3.00000e+03	3.30000e+03
371	3.00000e+03	3.40000e+03
372	3.00000e+03	3.50000e+03
373	3.00000e+03	3.60000e+03
374	3.00000e+03	3.70000e+03
375	3.00000e+03	3.80000e+03
376	1.50000e+02	3.50000e+03
377	1.50000e+02	3.55000e+03
378	4.69000e+02	2.55000e+03
379	4.69000e+02	3.35000e+03
380	4.69000e+02	3.45000e+03
381	5.40000e+02	2.33000e+03
382	5.40000e+02	2.43000e+03
383	6.20000e+02	3.65000e+03
384	6.20000e+02	3.70900e+03
385	7.50000e+02	2.55000e+03
386	8.50000e+02	5.20000e+02
387	8.50000e+02	7.00000e+02
388	8.50000e+02	2.28000e+03
389	9.39000e+02	7.40000e+02
390	9.50000e+02	2.22000e+03
391	9.10000e+02	2.60000e+03
392	1.05000e+03	1.05000e+03
393	1.15000e+03	1.35000e+03
394	1.17000e+03	2.28000e+03
395	1.22000e+03	2.21000e+03
396	1.35000e+03	7.50000e+02
397	1.35000e+03	1.70000e+03
398	1.35000e+03	2.14000e+03
399	1.45000e+03	7.70000e+02
400	1.55000e+03	3.00000e+02
401	1.55000e+03	5.00000e+02
402	1.55000e+03	1.85000e+03
403	1.65000e+03	1.05000e+03
404	1.69000e+03	2.68000e+03
405	1.71000e+03	3.10000e+02
406	1.71000e+03	5.10000e+02
407	1.75000e+03	7.50000e+02
408	1.79000e+03	2.58000e+03
409	1.72000e+03	2.61000e+03
410	1.79000e+03	3.33000e+03
411	1.72000e+03	3.40900e+03
412	1.82900e+03	2.70000e+03
413	1.82900e+03	2.80000e+03
414	1.82900e+03	3.45000e+03
415	2.06000e+03	1.65000e+03
416	2.05000e+03	3.15000e+03
417	2.17000e+03	1.90000e+03
418	2.11000e+03	2.00000e+03
419	2.12000e+03	2.75000e+03
420	2.15000e+03	3.25000e+03
421	2.29000e+03	1.40000e+03
422	2.22000e+03	2.82000e+03
423	2.28000e+03	3.25000e+03
424	2.39000e+03	1.30000e+03
425	2.32000e+03	1.50000e+03
426	2.45000e+03	7.10000e+02
427	2.62000e+03	3.65000e+03
428	2.75000e+03	5.20000e+02
429	2.76000e+03	2.36000e+03
430	2.85000e+03	2.20000e+03
431	2.85000e+03	2.70000e+03
432	2.85000e+03	3.35000e+03
433	2.93000e+03	9.50000e+02
434	2.95000e+03	1.75000e+03
435	2.95000e+03	2.05000e+03
436	5.20000e+02	3.20000e+03
437	2.30000e+03	3.50000e+03
438	2.32000e+03	3.15000e+03
439	5.30000e+02	2.10000e+03
440	2.55000e+03	7.10000e+02
441	7.50000e+02	4.90000e+02
442	0.00000e+00	0.00000e+00
ITEMS SECTION	(INDEX, PROFIT, WEIGHT, ASSIGNED NODE NUMBER): 
1	119	1	2
2	187	896	3
3	997	367	4
4	22	690	5
5	347	613	6
6	522	874	7
7	730	122	8
8	705	486	9
9	232	823	10
10	554	463	11
11	675	589	12
12	970	325	13
13	407	1000	14
14	276	776	15
15	331	123	16
16	361	356	17
17	798	305	18
18	427	47	19
19	439	645	20
20	91	139	21
21	650	247	22
22	10	211	23
23	838	100	24
24	725	627	25
25	843	760	26
26	137	776	27
27	977	475	28
28	718	937	29
29	99	101	30
30	609	281	31
31	819	751	32
32	97	530	33
33	975	240	34
34	226	248	35
35	241	768	36
36	584	31	37
37	348	613	38
38	475	881	39
39	178	367	40
40	641	712	41
41	898	410	42
42	250	157	43
43	391	824	44
44	101	242	45
45	636	472	46
46	87	722	47
47	652	775	48
48	867	371	49
49	54	337	50
50	509	885	51
51	989	204	52
52	129	594	53
53	597	226	54
54	513	226	55
55	201	921	56
56	227	537	57
57	82	112	58
58	296	959	59
59	802	392	60
60	537	709	61
61	943	940	62
62	997	943	63
63	642	79	64
64	205	922	65
65	551	361	66
66	904	947	67
67	400	861	68
68	250	937	69
69	586	754	70
70	631	872	71
71	752	636	72
72	510	459	73
73	542	390	74
74	576	141	75
75	550	111	76
76	504	588	77
77	702	6	78
78	20	155	79
79	179	723	80
80	770	723	81
81	95	667	82
82	598	829	83
83	885	487	84
84	239	590	85
85	37	370	86
86	898	823	87
87	923	173	88
88	261	56	89
89	786	977	90
90	46	681	91
91	438	689	92
92	116	933	93
93	503	809	94
94	603	587	95
95	194	686	96
96	341	466	97
97	545	356	98
98	52	784	99
99	810	862	100
100	260	223	101
101	197	541	102
102	213	61	103
103	462	416	104
104	62	62	105
105	203	205	106
106	269	152	107
107	160	913	108
108	747	267	109
109	174	249	110
110	700	187	111
111	114	174	112
112	412	939	113
113	905	519	114
114	109	56	115
115	369	381	116
116	525	551	117
117	987	128	118
118	660	812	119
119	149	753	120
120	764	544	121
121	396	684	122
122	905	830	123
123	30	725	124
124	384	330	125
125	981	115	126
126	483	38	127
127	176	445	128
128	570	619	129
129	891	648	130
130	446	896	131
131	567	658	132
132	646	306	133
133	229	806	134
134	893	800	135
135	723	612	136
136	771	354	137
137	329	300	138
138	279	174	139
139	253	751	140
140	262	126	141
141	802	603	142
142	861	665	143
143	127	209	144
144	131	308	145
145	460	308	146
146	290	677	147
147	296	863	148
148	172	292	149
149	158	444	150
150	241	295	151
151	301	413	152
152	958	72	153
153	694	321	154
154	594	981	155
155	145	797	156
156	819	507	157
157	672	715	158
158	638	512	159
159	645	892	160
160	915	76	161
161	879	22	162
162	14	643	163
163	975	866	164
164	185	74	165
165	466	508	166
166	511	243	167
167	767	776	168
168	579	326	169
169	496	694	170
170	119	662	171
171	829	17	172
172	858	654	173
173	547	129	174
174	801	662	175
175	28	123	176
176	269	182	177
177	113	554	178
178	293	421	179
179	410	685	180
180	850	470	181
181	237	77	182
182	552	264	183
183	117	624	184
184	45	961	185
185	42	55	186
186	722	254	187
187	710	880	188
188	110	921	189
189	800	809	190
190	618	680	191
191	129	554	192
192	887	62	193
193	692	573	194
194	604	568	195
195	35	37	196
196	963	910	197
197	108	632	198
198	411	211	199
199	426	67	200
200	104	763	201
201	208	568	202
202	542	681	203
203	248	814	204
204	237	514	205
205	922	326	206
206	678	41	207
207	392	909	208
208	516	192	209
209	422	59	210
210	582	352	211
211	327	678	212
212	97	885	213
213	378	596	214
214	362	400	215
215	124	411	216
216	376	746	217
217	167	535	218
218	680	82	219
219	679	399	220
220	330	412	221
221	613	636	222
222	345	983	223
223	181	360	224
224	576	120	225
225	698	870	226
226	312	808	227
227	122	4	228
228	158	391	229
229	476	810	230
230	873	819	231
231	477	958	232
232	857	209	233
233	681	717	234
234	3	359	235
235	167	895	236
236	337	419	237
237	134	504	238
238	198	588	239
239	219	719	240
240	151	323	241
241	717	341	242
242	181	965	243
243	39	859	244
244	191	456	245
245	652	760	246
246	293	135	247
247	90	390	248
248	319	780	249
249	516	496	250
250	156	1	251
251	11	906	252
252	526	171	253
253	335	437	254
254	74	164	255
255	968	142	256
256	701	876	257
257	409	265	258
258	722	762	259
259	356	319	260
260	833	780	261
261	512	41	262
262	977	33	263
263	782	720	264
264	974	887	265
265	116	907	266
266	334	551	267
267	400	732	268
268	909	969	269
269	255	679	270
270	32	228	271
271	222	168	272
272	150	654	273
273	100	48	274
274	611	549	275
275	851	260	276
276	766	112	277
277	771	450	278
278	386	925	279
279	791	240	280
280	850	375	281
281	635	875	282
282	317	299	283
283	50	969	284
284	426	215	285
285	791	435	286
286	93	648	287
287	185	515	288
288	582	351	289
289	2	582	290
290	411	32	291
291	992	901	292
292	188	902	293
293	962	494	294
294	620	766	295
295	927	602	296
296	559	494	297
297	711	147	298
298	271	418	299
299	37	628	300
300	497	219	301
301	892	837	302
302	676	340	303
303	63	441	304
304	17	315	305
305	781	109	306
306	958	343	307
307	985	616	308
308	509	532	309
309	608	522	310
310	274	897	311
311	819	514	312
312	353	986	313
313	932	888	314
314	446	759	315
315	981	323	316
316	742	176	317
317	883	919	318
318	978	67	319
319	290	503	320
320	260	556	321
321	155	716	322
322	713	319	323
323	80	471	324
324	479	517	325
325	49	105	326
326	88	153	327
327	182	140	328
328	645	886	329
329	764	692	330
330	950	319	331
331	421	560	332
332	141	642	333
333	184	696	334
334	698	258	335
335	879	250	336
336	9	639	337
337	15	372	338
338	992	132	339
339	883	856	340
340	188	453	341
341	89	503	342
342	916	539	343
343	934	819	344
344	333	126	345
345	877	430	346
346	532	598	347
347	434	696	348
348	458	597	349
349	637	697	350
350	649	52	351
351	290	652	352
352	45	625	353
353	638	91	354
354	406	546	355
355	324	317	356
356	146	313	357
357	181	89	358
358	367	283	359
359	501	917	360
360	950	806	361
361	802	912	362
362	963	511	363
363	144	168	364
364	121	758	365
365	584	392	366
366	418	646	367
367	879	114	368
368	788	5	369
369	906	989	370
370	352	228	371
371	279	131	372
372	588	699	373
373	951	386	374
374	599	229	375
375	752	621	376
376	740	371	377
377	767	574	378
378	848	495	379
379	475	674	380
380	662	255	381
381	612	352	382
382	858	588	383
383	929	176	384
384	467	935	385
385	25	325	386
386	593	167	387
387	858	550	388
388	557	457	389
389	806	478	390
390	776	892	391
391	179	942	392
392	428	991	393
393	857	988	394
394	30	866	395
395	206	123	396
396	189	86	397
397	741	70	398
398	37	186	399
399	446	314	400
400	828	163	401
401	63	119	402
402	246	774	403
403	383	74	404
404	115	661	405
405	163	386	406
406	853	741	407
407	458	541	408
408	160	152	409
409	227	143	410
410	370	131	411
411	918	47	412
412	955	574	413
413	416	229	414
414	366	275	415
415	176	787	416
416	588	661	417
417	462	320	418
418	562	815	419
419	643	699	420
420	17	709	421
421	884	458	422
422	155	323	423
423	560	286	424
424	141	721	425
425	185	907	426
426	528	743	427
427	775	185	428
428	898	843	429
429	872	794	430
430	433	524	431
431	916	233	432
432	888	841	433
433	740	491	434
434	410	427	435
435	482	893	436
436	42	396	437
437	684	25	438
438	917	547	439
439	130	638	440
440	904	590	441
441	199	90	442
442	763	506	2
443	253	615	3
444	399	65	4
445	185	920	5
446	659	968	6
447	877	839	7
448	834	828	8
449	204	52	9
450	201	145	10
451	416	491	11
452	572	263	12
453	623	723	13
454	680	993	14
455	228	935	15
456	987	859	16
457	602	218	17
458	688	535	18
459	228	156	19
460	246	364	20
461	935	315	21
462	472	380	22
463	449	80	23
464	295	17	24
465	914	984	25
466	628	427	26
467	240	675	27
468	106	336	28
469	530	244	29
470	535	672	30
471	226	582	31
472	836	52	32
473	37	487	33
474	738	355	34
475	783	547	35
476	572	736	36
477	87	256	37
478	251	108	38
479	962	153	39
480	836	691	40
481	555	786	41
482	678	654	42
483	904	975	43
484	904	972	44
485	424	585	45
486	871	229	46
487	536	654	47
488	749	469	48
489	436	20	49
490	949	770	50
491	731	162	51
492	539	90	52
493	300	754	53
494	329	267	54
495	389	223	55
496	547	928	56
497	546	15	57
498	924	637	58
499	130	493	59
500	866	208	60
501	357	78	61
502	196	292	62
503	729	349	63
504	588	219	64
505	556	781	65
506	807	591	66
507	316	763	67
508	168	245	68
509	514	382	69
510	573	534	70
511	381	108	71
512	730	852	72
513	883	146	73
514	681	941	74
515	602	15	75
516	12	207	76
517	845	270	77
518	233	856	78
519	674	262	79
520	291	681	80
521	984	431	81
522	633	71	82
523	166	211	83
524	152	53	84
525	798	895	85
526	620	289	86
527	256	621	87
528	764	881	88
529	291	944	89
530	850	962	90
531	958	882	91
532	74	869	92
533	589	645	93
534	450	823	94
535	455	988	95
536	800	467	96
537	652	21	97
538	818	485	98
539	892	879	99
540	693	478	100
541	819	274	101
542	801	991	102
543	432	286	103
544	476	276	104
545	85	339	105
546	923	815	106
547	520	50	107
548	576	478	108
549	672	840	109
550	380	914	110
551	972	373	111
552	141	293	112
553	285	452	113
554	523	495	114
555	123	233	115
556	621	388	116
557	101	41	117
558	849	573	118
559	226	283	119
560	112	434	120
561	773	930	121
562	911	154	122
563	718	123	123
564	26	862	124
565	994	530	125
566	91	104	126
567	84	779	127
568	568	459	128
569	533	823	129
570	939	343	130
571	591	246	131
572	890	883	132
573	32	227	133
574	815	823	134
575	930	32	135
576	386	126	136
577	71	166	137
578	907	324	138
579	777	361	139
580	764	706	140
581	648	503	141
582	322	419	142
583	492	195	143
584	508	945	144
585	810	970	145
586	659	257	146
587	60	41	147
588	882	352	148
589	9	137	149
590	64	192	150
591	60	41	151
592	792	380	152
593	176	222	153
594	266	52	154
595	48	656	155
596	290	612	156
597	820	364	157
598	125	199	158
599	344	826	159
600	212	652	160
601	511	474	161
602	906	858	162
603	438	480	163
604	791	582	164
605	259	369	165
606	367	597	166
607	243	633	167
608	509	360	168
609	818	715	169
610	256	980	170
611	118	652	171
612	120	266	172
613	181	236	173
614	298	146	174
615	508	50	175
616	38	310	176
617	417	387	177
618	42	950	178
619	360	94	179
620	887	953	180
621	706	799	181
622	185	530	182
623	700	422	183
624	285	702	184
625	452	835	185
626	386	920	186
627	798	73	187
628	530	455	188
629	308	972	189
630	186	462	190
631	52	392	191
632	549	5	192
633	707	487	193
634	943	969	194
635	31	735	195
636	141	869	196
637	147	454	197
638	50	570	198
639	347	290	199
640	91	683	200
641	215	193	201
642	308	374	202
643	797	842	203
644	604	191	204
645	495	911	205
646	235	31	206
647	923	40	207
648	13	788	208
649	97	852	209
650	6	742	210
651	183	446	211
652	964	142	212
653	112	906	213
654	780	970	214
655	676	843	215
656	805	137	216
657	625	666	217
658	937	456	218
659	719	709	219
660	226	526	220
661	297	889	221
662	441	859	222
663	878	669	223
664	425	423	224
665	71	62	225
666	483	978	226
667	276	288	227
668	562	96	228
669	288	304	229
670	46	6	230
671	443	587	231
672	142	326	232
673	693	561	233
674	558	226	234
675	159	124	235
676	896	337	236
677	454	927	237
678	119	723	238
679	625	693	239
680	871	819	240
681	810	664	241
682	105	120	242
683	185	330	243
684	906	679	244
685	20	867	245
686	218	793	246
687	171	415	247
688	434	605	248
689	175	643	249
690	142	354	250
691	259	220	251
692	267	746	252
693	858	925	253
694	714	510	254
695	624	291	255
696	170	938	256
697	805	870	257
698	852	285	258
699	188	54	259
700	456	56	260
701	218	135	261
702	221	296	262
703	777	579	263
704	605	874	264
705	604	315	265
706	542	770	266
707	405	281	267
708	261	111	268
709	650	277	269
710	622	454	270
711	270	866	271
712	990	106	272
713	116	29	273
714	545	621	274
715	543	177	275
716	615	94	276
717	620	273	277
718	618	391	278
719	417	611	279
720	339	889	280
721	983	13	281
722	714	494	282
723	266	536	283
724	323	995	284
725	193	853	285
726	221	544	286
727	105	160	287
728	415	622	288
729	316	752	289
730	636	692	290
731	559	935	291
732	341	685	292
733	993	420	293
734	693	753	294
735	31	739	295
736	152	110	296
737	324	110	297
738	52	324	298
739	694	922	299
740	434	114	300
741	700	353	301
742	294	120	302
743	627	855	303
744	329	402	304
745	128	339	305
746	360	285	306
747	663	724	307
748	613	665	308
749	170	101	309
750	179	579	310
751	126	895	311
752	488	302	312
753	311	81	313
754	523	277	314
755	68	478	315
756	604	272	316
757	973	860	317
758	275	753	318
759	489	956	319
760	552	298	320
761	460	211	321
762	722	244	322
763	717	564	323
764	931	918	324
765	661	791	325
766	216	73	326
767	723	866	327
768	943	780	328
769	45	779	329
770	785	912	330
771	625	567	331
772	606	394	332
773	450	834	333
774	376	328	334
775	478	419	335
776	32	258	336
777	668	59	337
778	909	375	338
779	867	971	339
780	507	673	340
781	637	487	341
782	367	694	342
783	650	210	343
784	697	187	344
785	97	911	345
786	114	39	346
787	353	321	347
788	477	234	348
789	414	1000	349
790	194	272	350
791	528	737	351
792	493	222	352
793	269	992	353
794	542	776	354
795	534	188	355
796	649	980	356
797	422	672	357
798	461	895	358
799	127	618	359
800	778	201	360
801	167	553	361
802	139	959	362
803	336	112	363
804	787	206	364
805	454	673	365
806	757	7	366
807	737	480	367
808	307	987	368
809	346	821	369
810	224	548	370
811	978	997	371
812	25	501	372
813	837	398	373
814	245	783	374
815	462	141	375
816	350	705	376
817	756	886	377
818	200	860	378
819	314	695	379
820	102	696	380
821	853	873	381
822	76	823	382
823	606	852	383
824	302	380	384
825	479	455	385
826	56	870	386
827	658	120	387
828	823	7	388
829	517	62	389
830	516	979	390
831	90	184	391
832	793	264	392
833	267	425	393
834	340	673	394
835	394	739	395
836	312	150	396
837	759	45	397
838	11	868	398
839	227	203	399
840	443	533	400
841	592	137	401
842	153	451	402
843	235	155	403
844	959	302	404
845	666	643	405
846	597	471	406
847	320	224	407
848	495	160	408
849	536	239	409
850	347	99	410
851	462	673	411
852	695	940	412
853	640	153	413
854	583	155	414
855	147	488	415
856	964	634	416
857	266	623	417
858	296	871	418
859	233	208	419
860	141	102	420
861	913	289	421
862	461	703	422
863	476	295	423
864	381	807	424
865	495	547	425
866	411	325	426
867	368	859	427
868	86	756	428
869	93	328	429
870	244	544	430
871	379	990	431
872	566	311	432
873	560	726	433
874	360	69	434
875	360	4	435
876	725	387	436
877	4	309	437
878	144	678	438
879	634	634	439
880	981	72	440
881	909	249	441
882	653	789	442
883	244	94	2
884	760	979	3
885	544	246	4
886	597	822	5
887	599	107	6
888	61	496	7
889	711	681	8
890	990	434	9
891	124	755	10
892	555	306	11
893	665	971	12
894	393	113	13
895	517	773	14
896	60	791	15
897	541	302	16
898	175	812	17
899	952	542	18
900	507	734	19
901	536	167	20
902	839	283	21
903	27	681	22
904	486	850	23
905	985	996	24
906	702	794	25
907	584	33	26
908	188	662	27
909	828	654	28
910	76	955	29
911	98	916	30
912	22	568	31
913	43	429	32
914	845	641	33
915	926	879	34
916	50	456	35
917	358	888	36
918	477	744	37
919	499	702	38
920	611	511	39
921	708	252	40
922	931	656	41
923	402	874	42
924	618	306	43
925	839	346	44
926	358	841	45
927	77	66	46
928	984	855	47
929	444	347	48
930	594	350	49
931	715	581	50
932	536	852	51
933	288	821	52
934	532	556	53
935	978	252	54
936	625	861	55
937	555	253	56
938	753	297	57
939	540	826	58
940	282	540	59
941	232	363	60
942	99	735	61
943	586	549	62
944	868	280	63
945	779	955	64
946	243	560	65
947	547	772	66
948	211	729	67
949	697	576	68
950	479	505	69
951	798	120	70
952	861	791	71
953	203	721	72
954	13	97	73
955	394	229	74
956	912	343	75
957	634	302	76
958	614	688	77
959	477	928	78
960	167	16	79
961	788	42	80
962	347	618	81
963	290	512	82
964	910	552	83
965	405	272	84
966	43	820	85
967	745	718	86
968	337	113	87
969	6	999	88
970	11	779	89
971	578	494	90
972	17	208	91
973	74	271	92
974	547	841	93
975	17	558	94
976	486	913	95
977	163	435	96
978	631	882	97
979	219	292	98
980	629	182	99
981	265	502	100
982	603	504	101
983	639	250	102
984	59	871	103
985	330	280	104
986	894	492	105
987	646	803	106
988	863	97	107
989	186	889	108
990	383	6	109
991	931	60	110
992	635	401	111
993	989	74	112
994	459	577	113
995	348	438	114
996	972	344	115
997	688	280	116
998	860	466	117
999	886	248	118
1000	421	806	119
1001	963	562	120
1002	538	256	121
1003	371	22	122
1004	735	656	123
1005	168	88	124
1006	846	563	125
1007	551	847	126
1008	516	371	127
1009	605	995	128
1010	690	358	129
1011	503	192	130
1012	486	256	131
1013	182	994	132
1014	538	910	133
1015	920	356	134
1016	372	184	135
1017	123	480	136
1018	445	490	137
1019	549	229	138
1020	46	952	139
1021	520	568	140
1022	643	811	141
1023	553	89	142
1024	11	364	143
1025	903	420	144
1026	832	139	145
1027	672	527	146
1028	657	364	147
1029	407	622	148
1030	808	943	149
1031	506	481	150
1032	445	731	151
1033	152	39	152
1034	696	95	153
1035	760	338	154
1036	774	172	155
1037	700	350	156
1038	507	634	157
1039	509	687	158
1040	966	446	159
1041	343	398	160
1042	98	221	161
1043	45	935	162
1044	488	223	163
1045	184	683	164
1046	514	98	165
1047	240	493	166
1048	427	34	167
1049	421	106	168
1050	882	947	169
1051	71	674	170
1052	61	931	171
1053	466	150	172
1054	761	398	173
1055	670	621	174
1056	304	446	175
1057	106	383	176
1058	812	455	177
1059	256	125	178
1060	207	485	179
1061	964	778	180
1062	301	883	181
1063	830	282	182
1064	553	881	183
1065	183	686	184
1066	372	73	185
1067	232	721	186
1068	309	502	187
1069	357	979	188
1070	762	489	189
1071	625	823	190
1072	100	769	191
1073	667	538	192
1074	497	990	193
1075	614	331	194
1076	154	339	195
1077	959	473	196
1078	597	485	197
1079	175	430	198
1080	157	540	199
1081	864	902	200
1082	861	190	201
1083	213	755	202
1084	76	970	203
1085	146	977	204
1086	993	815	205
1087	890	745	206
1088	560	322	207
1089	863	436	208
1090	893	766	209
1091	195	958	210
1092	381	99	211
1093	678	236	212
1094	93	861	213
1095	225	179	214
1096	666	968	215
1097	766	279	216
1098	718	29	217
1099	539	292	218
1100	892	620	219
1101	859	285	220
1102	683	766	221
1103	148	190	222
1104	663	325	223
1105	560	32	224
1106	245	418	225
1107	675	537	226
1108	900	203	227
1109	931	182	228
1110	601	679	229
1111	222	422	230
1112	819	143	231
1113	277	563	232
1114	262	731	233
1115	317	488	234
1116	579	678	235
1117	118	274	236
1118	300	64	237
1119	653	268	238
1120	532	230	239
1121	284	83	240
1122	109	863	241
1123	906	426	242
1124	587	53	243
1125	85	707	244
1126	646	182	245
1127	546	883	246
1128	294	263	247
1129	839	849	248
1130	319	564	249
1131	57	411	250
1132	659	846	251
1133	215	820	252
1134	694	737	253
1135	919	198	254
1136	477	929	255
1137	798	600	256
1138	80	769	257
1139	947	172	258
1140	327	975	259
1141	477	624	260
1142	264	487	261
1143	835	366	262
1144	318	723	263
1145	370	346	264
1146	221	60	265
1147	241	376	266
1148	690	599	267
1149	632	808	268
1150	128	743	269
1151	471	279	270
1152	157	499	271
1153	883	227	272
1154	563	763	273
1155	307	98	274
1156	626	260	275
1157	849	608	276
1158	762	222	277
1159	43	963	278
1160	679	295	279
1161	201	404	280
1162	749	998	281
1163	226	637	282
1164	859	261	283
1165	479	857	284
1166	460	940	285
1167	289	564	286
1168	256	918	287
1169	422	473	288
1170	641	234	289
1171	694	786	290
1172	361	321	291
1173	828	783	292
1174	633	6	293
1175	847	102	294
1176	740	223	295
1177	769	531	296
1178	443	231	297
1179	599	652	298
1180	89	333	299
1181	895	876	300
1182	998	76	301
1183	952	26	302
1184	337	752	303
1185	443	157	304
1186	639	698	305
1187	159	6	306
1188	992	104	307
1189	530	98	308
1190	776	388	309
1191	523	835	310
1192	427	863	311
1193	52	194	312
1194	218	114	313
1195	382	898	314
1196	474	697	315
1197	132	356	316
1198	979	773	317
1199	138	723	318
1200	670	100	319
1201	654	659	320
1202	896	94	321
1203	572	851	322
1204	19	447	323
1205	407	484	324
1206	60	748	325
1207	35	37	326
1208	159	652	327
1209	536	205	328
1210	998	132	329
1211	409	20	330
1212	153	975	331
1213	907	29	332
1214	55	681	333
1215	217	300	334
1216	66	494	335
1217	748	792	336
1218	417	259	337
1219	15	726	338
1220	95	280	339
1221	320	34	340
1222	8	585	341
1223	731	314	342
1224	180	560	343
1225	681	657	344
1226	4	481	345
1227	373	572	346
1228	874	810	347
1229	719	324	348
1230	949	12	349
1231	154	297	350
1232	393	970	351
1233	496	768	352
1234	605	253	353
1235	981	417	354
1236	134	113	355
1237	264	975	356
1238	825	496	357
1239	710	572	358
1240	638	881	359
1241	617	553	360
1242	464	845	361
1243	102	183	362
1244	56	414	363
1245	204	181	364
1246	938	115	365
1247	96	382	366
1248	863	364	367
1249	390	790	368
1250	1	511	369
1251	81	201	370
1252	85	677	371
1253	748	536	372
1254	139	701	373
1255	689	729	374
1256	665	202	375
1257	950	401	376
1258	517	667	377
1259	976	289	378
1260	73	119	379
1261	695	258	380
1262	681	474	381
1263	729	215	382
1264	936	785	383
1265	522	94	384
1266	512	982	385
1267	497	210	386
1268	289	664	387
1269	638	720	388
1270	841	667	389
1271	408	307	390
1272	321	63	391
1273	539	870	392
1274	248	136	393
1275	102	766	394
1276	144	705	395
1277	866	618	396
1278	398	885	397
1279	671	655	398
1280	536	140	399
1281	265	964	400
1282	759	718	401
1283	759	239	402
1284	900	335	403
1285	124	523	404
1286	479	655	405
1287	310	647	406
1288	242	636	407
1289	572	443	408
1290	668	551	409
1291	869	489	410
1292	449	88	411
1293	892	382	412
1294	231	815	413
1295	471	68	414
1296	811	656	415
1297	654	733	416
1298	690	226	417
1299	400	118	418
1300	260	804	419
1301	865	566	420
1302	266	988	421
1303	417	585	422
1304	504	366	423
1305	438	269	424
1306	310	53	425
1307	609	552	426
1308	96	377	427
1309	86	876	428
1310	701	53	429
1311	53	376	430
1312	685	51	431
1313	445	925	432
1314	180	279	433
1315	216	570	434
1316	915	909	435
1317	778	940	436
1318	229	544	437
1319	451	165	438
1320	487	351	439
1321	476	303	440
1322	345	550	441
1323	638	942	442
